dates = {'2022-02-12','2022-02-13','2022-02-14','2022-02-15','2022-02-16','2022-02-17','2022-02-18','2022-02-19','2022-02-20','2022-02-21'};

daysOfWeek = [Saturday,Sunday,Monday,Tuesday,Wednesday,Thursday,Friday,Saturday,Sunday,Monday];

% For this week, how many people will be here.
numPeople = [156,156,156,163,163,163,162,147,161,157];

% Physical workers need 50 to 100 % more nutrients per day.
numPhysicalWorkers = [51.5,51.5,55.0,50.5,50.5,50.5,50.5,50.5,47.0,47.0];

% Males need +25% more nutrients per day.
numMen = [128,128,132,134,134,134,134,136,145,133];

% Num people who do not eat categories. contains = {none, meat, milk, gluten, egg, nut, seed, sugars}
numRefusals = [| 0,0,0,6,0,14,1,10 | 0,0,0,6,0,14,1,10 | 0,0,0,6,0,14,1,10 | 0,3,0,0,0,13,0,0 | 0,3,0,0,0,13,0,0 | 0,3,0,0,0,13,0,0 | 0,5,0,0,7,0,0,4 | 0,0,0,3,6,0,0,4 | 0,4,0,4,6,0,0,0 | 0,0,8,13,0,5,0,0 |];

